benchmarks/bfuzz0/23697186832388887425308310342031324149.smt2
(set-logic QF_FP)
(declare-const x0 (_ FloatingPoint 11 53))
(declare-const x1 (_ FloatingPoint 11 53))
(declare-const x2 (_ FloatingPoint 11 53))
(declare-const x3 (_ FloatingPoint 11 53))
(declare-const x4 (_ FloatingPoint 11 53))
(declare-const x5 (_ FloatingPoint 11 53))
(declare-const x6 (_ FloatingPoint 11 53))
(declare-const x7 (_ FloatingPoint 11 53))
(declare-const x8 (_ FloatingPoint 11 53))
(declare-const x9 (_ FloatingPoint 11 53))
(declare-const x10 (_ FloatingPoint 11 53))
(declare-const x11 (_ FloatingPoint 11 53))
(declare-const x12 (_ FloatingPoint 11 53))
(declare-const x13 (_ FloatingPoint 11 53))
(declare-const x14 (_ FloatingPoint 11 53))
(declare-const x15 (_ FloatingPoint 11 53))
(declare-const x16 (_ FloatingPoint 11 53))
(declare-const x17 (_ FloatingPoint 11 53))
(declare-const x18 (_ FloatingPoint 11 53))
(assert (fp.geq (fp.mul RNE (fp.div RNE (fp.div RNE (fp.mul RNE x15 x13) (fp.mul RNE x4 x7)) (fp.sub RNE (fp.neg x14) (fp.sub RNE x8 x16))) (fp.div RNE (fp.add RNE (fp.div RNE x10 x4) (fp.sub RNE x12 x7)) (fp.neg (fp.neg x9)))) (fp.sub RNE (fp.sub RNE (fp.neg (fp.div RNE x2 x13)) (fp.div RNE (fp.mul RNE x18 x0) (fp.neg x15))) (fp.add RNE (fp.mul RNE (fp.mul RNE x17 x16) (fp.add RNE x17 x7)) (fp.add RNE (fp.add RNE x15 x5) (fp.neg x3))))))
(assert (fp.leq (fp.mul RNE (fp.neg (fp.mul RNE (fp.div RNE x0 x14) (fp.add RNE x8 x3))) (fp.mul RNE (fp.neg (fp.neg x1)) (fp.div RNE (fp.div RNE x14 x0) (fp.div RNE x8 x3)))) (fp.neg (fp.add RNE (fp.sub RNE (fp.mul RNE x18 x9) (fp.add RNE x12 x12)) (fp.sub RNE (fp.div RNE x1 x3) (fp.div RNE x18 x5))))))
(assert (fp.geq (fp.add RNE (fp.add RNE (fp.neg (fp.div RNE x7 x9)) (fp.add RNE (fp.sub RNE x15 x18) (fp.neg x7))) (fp.div RNE (fp.sub RNE (fp.add RNE x5 x17) (fp.mul RNE x17 x17)) (fp.sub RNE (fp.sub RNE x7 x2) (fp.neg x0)))) (fp.sub RNE (fp.neg (fp.neg (fp.sub RNE x6 x4))) (fp.div RNE (fp.sub RNE (fp.neg x12) (fp.mul RNE x2 x7)) (fp.div RNE (fp.neg x3) (fp.neg x15))))))
(check-sat)
