db/data/23697186832388887425308310342031324149.z3.out
-------------------
2500.135454861
